100
30
5
13
27
5
17
5
16
13
27
24
7
29
32
32
11
12
12
24
11
31
12
11
12
17
27
23
6
5
9
26
12
28
6
28
28
2
22
23
24
32
18
10
23
31
29
10
14
22
32
5
23
30
22
3
22
17
29
25
30
25
26
25
2
10
31
17
24
1
10
22
8
25
13
28
4
20
15
14
12
21
29
16
14
32
28
23
18
22
25
20
7
8
2
14
24
26
3
15
14
23